ass02-p6.log
\ Model ass02-p6.lp
\ LP format - for model browsing. Use MPS format to capture full model detail.
Maximize
  55 p111 + 55 p112 + 12 p121 + 12 p122 + 65 p211 + 65 p212 + 35 p221
   + 35 p222
Subject To
 1: p111 >= 0
 2: p112 >= 0
 3: p121 >= 0
 4: p122 >= 0
 5: p211 >= 0
 6: p212 >= 0
 7: p221 >= 0
 8: p222 >= 0
 9: p111 + p112 <= 100
 10: p121 + p122 <= 190
 11: p211 + p212 <= 140
 12: p221 + p222 <= 130
 13: 4 p111 + 7 p211 <= 500
 14: 4 p121 + 7 p221 <= 500
 15: 3 p112 + 4 p212 <= 500
 16: 3 p122 + 4 p222 <= 500
Bounds
Generals
 p111 p112 p121 p122 p211 p212 p221 p222
End

 RE-INSTALLING BEST SOLUTION...

report.py v.0.96 output from ass02-p6.lp at 04:16 PM on 01/30/2020:

        OBJECTIVE FUNCTION VALUE

        0)         20477

  VARIABLE        VALUE          REDUCED COST
      p111              100                55
      p112                0                55
      p121              116                12
      p122                0                12
      p211               14                65
      p212              125                65
      p221                5                35
      p222              125                35

       ROW   SLACK OR SURPLUS     DUAL PRICES
        1)              100                 0
        2)                0                 0
        3)              116                 0
        4)                0                 0
        5)               14                 0
        6)              125                 0
        7)                5                 0
        8)              125                 0
        9)                0                 0
       10)               74                 0
       11)                1                 0
       12)                0                 0
       13)                2                 0
       14)                1                 0
       15)                0                 0
       16)                0                 0

 NO. ITERATIONS=       0

